0 4993
1 4965
5 4924
6 4867
7 4847
10 4844
11 4835
17 4832
18 4798
20 4774
21 4735
24 4707
25 4706
27 4702
34 4694
36 4676
47 4671
59 4660
62 4659
64 4631
75 4598
85 4544
90 4532
94 4522
95 4504
102 4488
108 4469
113 4463
124 4436
134 4416
143 4415
145 4408
148 4405
149 4373
160 4364
163 4360
203 4355
241 4348
245 4333
252 4331
260 4327
273 4272
302 4267
416 4241
420 4240
426 4237
430 4230
442 4219
480 4201
500 4200
532 4193
599 4188
631 4183
665 4182
719 4176
745 4175
776 4159
779 4149
892 4140
932 4138
1035 4131
1037 4099
1106 4095
1120 4085
1215 4081
1490 4077
1523 4073
1527 4066
1757 4062
2530 4045
2653 4041
3615 4034
16825 4032
22508 4022
22665 4021
22718 4018
23136 4016
23853 4014
24008 4007
24332 4005
24448 4004
26356 4002
28384 4001
28994 4000
29659 3997
30013 3996
42698 3995
42877 3994
